% Logging successfully configured
%%%mzn-stat: initTime=0.021684687
%%%mzn-stat: objective=795
%%%mzn-stat: nodes=1241
%%%mzn-stat: restarts=0
%%%mzn-stat: peakDepth=1174
%%%mzn-stat: solveTime=0.064079751
%%%mzn-stat: variables=1856
%%%mzn-stat: propagators=1476
%%%mzn-stat: failures=42
%%%mzn-stat: propagations=6633
%%%mzn-stat: nogoods=42
%%%mzn-stat: numAtomicConstraintsPropagated=0
%%%mzn-stat: allDifferentNumber1PropagationsTotal=353
%%%mzn-stat: allDifferentNumber1PropagationsThatFoundConflict=0
%%%mzn-stat: allDifferentNumber1PropagationsThatPruned=204
%%%mzn-stat: allDifferentNumber1TotalValuesPruned=917
%%%mzn-stat: allDifferentNumber1TotalHallSetSizeConflict=0
%%%mzn-stat: allDifferentNumber1NumberOfConflicts=0
%%%mzn-stat: allDifferentNumber1MaxHallSetSizeConflict=0
%%%mzn-stat: allDifferentNumber1TotalPruningHallSetSize=1580
%%%mzn-stat: allDifferentNumber1NumberOfPruningExplanations=917
%%%mzn-stat: allDifferentNumber1MaxPruningHallSetSize=47
%%%mzn-stat: allDifferentNumber1TotalFixedEdgesAtConflict=0
%%%mzn-stat: allDifferentNumber1TotalVarsInvolvedInPruning=846
%%%mzn-stat: allDifferentNumber1MaxValuesPrunedFromSingleVar=5
%%%mzn-stat: allDifferentNumber1TotalSccSizeAtPruning=654
%%%mzn-stat: allDifferentNumber1NumberOfSccPruningCalls=204
%%%mzn-stat: circuitNumber2PropagationsThatFoundConflict=42
%%%mzn-stat: circuitNumber2TotalFixedEdgesAtConflict=3892
%%%mzn-stat: circuitNumber2NumberOfConflicts=42
%%%mzn-stat: circuitNumber2PropagationsThatPruned=43
%%%mzn-stat: circuitNumber2PropagationsTotal=214
%%%mzn-stat: AverageConflictSize=76.14285714285714
%%%mzn-stat: NumUnitNogoodsLearned=0
%%%mzn-stat: AverageLearnedNogoodLength=59
%%%mzn-stat: AverageBacktrackAmount=0
%%%mzn-stat: AverageLbd=55.666666666666664
%%%mzn-stat: 2AutonomousSearchNumBackupCalled=1103
%%%mzn-stat: 2AutonomousSearchNumPredicatesRemoved=0
%%%mzn-stat: 2AutonomousSearchNumCalls=1104
%%%mzn-stat: 2AutonomousSearchNumPredicatesAdded=833
%%%mzn-stat: 2AutonomousSearchAverageSizeOfHeap=0.7545289855072463
%%%mzn-stat: 2AutonomousSearchNumAssignedPredicatesEncountered=833
%%%mzn-stat-end
maxleg = 795;
succ = array1d(1..100,[2, 11, 5, 7, 12, 8, 16, 28, 6, 25, 15, 14, 4, 9, 23, 19, 39, 42, 1, 66, 33, 29, 21, 30, 32, 3, 35, 40, 13, 22, 24, 34, 41, 43, 52, 26, 31, 36, 10, 17, 53, 44, 47, 56, 50, 38, 62, 18, 51, 68, 91, 61, 58, 49, 46, 60, 37, 78, 57, 55, 79, 71, 64, 45, 72, 27, 48, 20, 77, 90, 81, 94, 75, 87, 93, 92, 80, 74, 83, 97, 54, 63, 85, 96, 65, 89, 88, 73, 69, 59, 70, 84, 98, 95, 99, 67, 82, 86, 100, 76]);
% time elapsed: 1.15 s
----------
%%%mzn-stat: initTime=0.021684687
%%%mzn-stat: objective=795
%%%mzn-stat: nodes=1512890
%%%mzn-stat: restarts=0
%%%mzn-stat: peakDepth=1174
%%%mzn-stat: solveTime=1798.999778661
%%%mzn-stat: variables=1856
%%%mzn-stat: propagators=1476
%%%mzn-stat: failures=1482087
%%%mzn-stat: propagations=30169195
%%%mzn-stat: nogoods=1482087
%%%mzn-stat: numAtomicConstraintsPropagated=0
%%%mzn-stat: allDifferentNumber1PropagationsTotal=5209414
%%%mzn-stat: allDifferentNumber1PropagationsThatFoundConflict=2476
%%%mzn-stat: allDifferentNumber1PropagationsThatPruned=3686311
%%%mzn-stat: allDifferentNumber1TotalValuesPruned=17345655
%%%mzn-stat: allDifferentNumber1TotalHallSetSizeConflict=58147
%%%mzn-stat: allDifferentNumber1NumberOfConflicts=2476
%%%mzn-stat: allDifferentNumber1MaxHallSetSizeConflict=46
%%%mzn-stat: allDifferentNumber1TotalPruningHallSetSize=157794638
%%%mzn-stat: allDifferentNumber1NumberOfPruningExplanations=17345655
%%%mzn-stat: allDifferentNumber1MaxPruningHallSetSize=51
%%%mzn-stat: allDifferentNumber1TotalFixedEdgesAtConflict=155092
%%%mzn-stat: allDifferentNumber1TotalVarsInvolvedInPruning=13084273
%%%mzn-stat: allDifferentNumber1MaxValuesPrunedFromSingleVar=6
%%%mzn-stat: allDifferentNumber1TotalSccSizeAtPruning=112149931
%%%mzn-stat: allDifferentNumber1NumberOfSccPruningCalls=3686311
%%%mzn-stat: circuitNumber2PropagationsThatFoundConflict=8781
%%%mzn-stat: circuitNumber2TotalFixedEdgesAtConflict=551863
%%%mzn-stat: circuitNumber2NumberOfConflicts=8781
%%%mzn-stat: circuitNumber2PropagationsThatPruned=1078713
%%%mzn-stat: circuitNumber2PropagationsTotal=2175901
%%%mzn-stat: AverageConflictSize=6.158456959679155
%%%mzn-stat: NumUnitNogoodsLearned=0
%%%mzn-stat: AverageLearnedNogoodLength=135.83339709477244
%%%mzn-stat: AverageBacktrackAmount=0
%%%mzn-stat: AverageLbd=40.15439309568197
%%%mzn-stat: 2AutonomousSearchNumBackupCalled=1103
%%%mzn-stat: 2AutonomousSearchNumPredicatesRemoved=0
%%%mzn-stat: 2AutonomousSearchNumCalls=1104
%%%mzn-stat: 2AutonomousSearchNumPredicatesAdded=4217
%%%mzn-stat: 2AutonomousSearchAverageSizeOfHeap=0.7545289855072463
%%%mzn-stat: 2AutonomousSearchNumAssignedPredicatesEncountered=833
%%%mzn-stat-end
